Iteration #1
Total number of hole bits is 368
Sketch file is blue_decrease_equivalent_7_canonicalizer_equivalent_0_sub_stateless_alu_arith_4_2_codegen_iteration_1.sk
Synthesis succeeded with 2 bits, proceeding to verification.
Verification failed.
Use returned counterexamples {'pkt_0': 11, 'pkt_1': 0} {'state_group_1_state_0': 0, 'state_group_0_state_0': 0}
updated constant array {' 2', ' 10', '11', ' 3', '0', ' 1'}
Iteration #2
Total number of hole bits is 368
Sketch file is blue_decrease_equivalent_7_canonicalizer_equivalent_0_sub_stateless_alu_arith_4_2_codegen_iteration_2.sk
Synthesis succeeded with 2 bits, proceeding to verification.
Verification failed.
Use returned counterexamples {'pkt_0': 12, 'pkt_1': 0} {'state_group_1_state_0': 1, 'state_group_0_state_0': 0}
updated constant array {' 2', ' 10', '11', '1', ' 3', '12', '0', ' 1'}
Iteration #3
Total number of hole bits is 368
Sketch file is blue_decrease_equivalent_7_canonicalizer_equivalent_0_sub_stateless_alu_arith_4_2_codegen_iteration_3.sk
Synthesis succeeded with 2 bits, proceeding to verification.
Verification failed.
Use returned counterexamples {'pkt_0': 12, 'pkt_1': 1} {'state_group_1_state_0': 0, 'state_group_0_state_0': 0}
updated constant array {' 2', ' 10', '11', '1', ' 3', '12', '0', ' 1'}
Iteration #4
Total number of hole bits is 368
Sketch file is blue_decrease_equivalent_7_canonicalizer_equivalent_0_sub_stateless_alu_arith_4_2_codegen_iteration_4.sk
Synthesis succeeded with 2 bits, proceeding to verification.
Verification failed.
Use returned counterexamples {'pkt_0': 11, 'pkt_1': 0} {'state_group_1_state_0': 12, 'state_group_0_state_0': 0}
updated constant array {' 2', ' 10', '11', '1', ' 3', '12', '0', ' 1'}
Iteration #5
Total number of hole bits is 368
Sketch file is blue_decrease_equivalent_7_canonicalizer_equivalent_0_sub_stateless_alu_arith_4_2_codegen_iteration_5.sk
Synthesis succeeded with 2 bits, proceeding to verification.
Verification failed.
Use returned counterexamples {'pkt_0': 7, 'pkt_1': 0} {'state_group_1_state_0': 1, 'state_group_0_state_0': 5}
updated constant array {' 2', ' 10', '11', '1', ' 3', '5', '12', '7', '0', ' 1'}
Iteration #6
Total number of hole bits is 416
Sketch file is blue_decrease_equivalent_7_canonicalizer_equivalent_0_sub_stateless_alu_arith_4_2_codegen_iteration_6.sk
Synthesis succeeded with 2 bits, proceeding to verification.
Verification failed.
Use returned counterexamples {'pkt_0': 9, 'pkt_1': 0} {'state_group_1_state_0': 0, 'state_group_0_state_0': 0}
updated constant array {' 2', ' 10', '11', '1', ' 3', '5', '12', '9', '7', '0', ' 1'}
Iteration #7
Total number of hole bits is 416
Sketch file is blue_decrease_equivalent_7_canonicalizer_equivalent_0_sub_stateless_alu_arith_4_2_codegen_iteration_7.sk
Synthesis succeeded with 2 bits, proceeding to verification.
Verification failed.
Use returned counterexamples {'pkt_0': 13, 'pkt_1': 0} {'state_group_1_state_0': 0, 'state_group_0_state_0': 0}
updated constant array {' 2', ' 10', '11', '1', '13', ' 3', '5', '12', '9', '7', '0', ' 1'}
Iteration #8
Total number of hole bits is 416
Sketch file is blue_decrease_equivalent_7_canonicalizer_equivalent_0_sub_stateless_alu_arith_4_2_codegen_iteration_8.sk
Synthesis succeeded with 2 bits, proceeding to verification.
Verification failed.
Use returned counterexamples {'pkt_0': 1023, 'pkt_1': 0} {'state_group_1_state_0': 1014, 'state_group_0_state_0': 0}
updated constant array {' 2', '1023', ' 10', '11', '1', '13', ' 3', '5', '12', '9', '7', '1014', '0', ' 1'}
Iteration #9
Total number of hole bits is 416
Sketch file is blue_decrease_equivalent_7_canonicalizer_equivalent_0_sub_stateless_alu_arith_4_2_codegen_iteration_9.sk
Synthesis succeeded with 2 bits, proceeding to verification.
Verification failed.
Use returned counterexamples {'pkt_0': 10, 'pkt_1': 0} {'state_group_1_state_0': 0, 'state_group_0_state_0': 0}
updated constant array {' 2', '1023', ' 10', '11', '1', '13', ' 3', '5', '12', '9', '10', '7', '1014', '0', ' 1'}
Iteration #10
Total number of hole bits is 416
Sketch file is blue_decrease_equivalent_7_canonicalizer_equivalent_0_sub_stateless_alu_arith_4_2_codegen_iteration_10.sk
Synthesis succeeded with 2 bits, proceeding to verification.
Verification failed.
Use returned counterexamples {'pkt_0': 18, 'pkt_1': 0} {'state_group_1_state_0': 7, 'state_group_0_state_0': 0}
updated constant array {' 2', '1023', ' 10', '11', '1', '13', '18', ' 3', '5', '12', '9', '10', '7', '1014', '0', ' 1'}
Iteration #11
Total number of hole bits is 416
Sketch file is blue_decrease_equivalent_7_canonicalizer_equivalent_0_sub_stateless_alu_arith_4_2_codegen_iteration_11.sk
Synthesis succeeded with 2 bits, proceeding to verification.
Verification failed.
Use returned counterexamples {'pkt_0': 20, 'pkt_1': 0} {'state_group_1_state_0': 9, 'state_group_0_state_0': 0}
updated constant array {' 2', '1023', ' 10', '11', '1', '13', '18', ' 3', '5', '12', '9', '20', '10', '7', '1014', '0', ' 1'}
Iteration #12
Total number of hole bits is 464
Sketch file is blue_decrease_equivalent_7_canonicalizer_equivalent_0_sub_stateless_alu_arith_4_2_codegen_iteration_12.sk
Synthesis succeeded with 2 bits, proceeding to verification.
Verification failed.
Use returned counterexamples {'pkt_0': 12, 'pkt_1': 0} {'state_group_1_state_0': 1, 'state_group_0_state_0': 1}
updated constant array {' 2', '1023', ' 10', '11', '1', '13', '18', ' 3', '5', '12', '9', '20', '10', '7', '1014', '0', ' 1'}
Iteration #13
Total number of hole bits is 464
Sketch file is blue_decrease_equivalent_7_canonicalizer_equivalent_0_sub_stateless_alu_arith_4_2_codegen_iteration_13.sk
Synthesis succeeded with 2 bits, proceeding to verification.
Verification failed.
Use returned counterexamples {'pkt_0': 11, 'pkt_1': 0} {'state_group_1_state_0': 1, 'state_group_0_state_0': 0}
updated constant array {' 2', '1023', ' 10', '11', '1', '13', '18', ' 3', '5', '12', '9', '20', '10', '7', '1014', '0', ' 1'}
Iteration #14
Total number of hole bits is 464
Sketch file is blue_decrease_equivalent_7_canonicalizer_equivalent_0_sub_stateless_alu_arith_4_2_codegen_iteration_14.sk
Synthesis succeeded with 2 bits, proceeding to verification.
blue_decrease_equivalent_7_canonicalizer_equivalent_0_sub_stateless_alu_arith_4_2_verify_iter_14.sk passed syntax check. 
Failed to generate counterexamples, z3 returned unsat
Compilation succeeded. Hole value assignments are following:
int blue_decrease_equivalent_7_canonicalizer_equivalent_0_sub_stateless_alu_arith_4_2_output_mux_phv_0_0_ctrl = 2
int blue_decrease_equivalent_7_canonicalizer_equivalent_0_sub_stateless_alu_arith_4_2_output_mux_phv_0_1_ctrl = 2
int blue_decrease_equivalent_7_canonicalizer_equivalent_0_sub_stateless_alu_arith_4_2_output_mux_phv_1_0_ctrl = 3
int blue_decrease_equivalent_7_canonicalizer_equivalent_0_sub_stateless_alu_arith_4_2_output_mux_phv_1_1_ctrl = 1
int blue_decrease_equivalent_7_canonicalizer_equivalent_0_sub_stateless_alu_arith_4_2_output_mux_phv_2_0_ctrl = 2
int blue_decrease_equivalent_7_canonicalizer_equivalent_0_sub_stateless_alu_arith_4_2_output_mux_phv_2_1_ctrl = 2
int blue_decrease_equivalent_7_canonicalizer_equivalent_0_sub_stateless_alu_arith_4_2_output_mux_phv_3_0_ctrl = 2
int blue_decrease_equivalent_7_canonicalizer_equivalent_0_sub_stateless_alu_arith_4_2_output_mux_phv_3_1_ctrl = 1
int blue_decrease_equivalent_7_canonicalizer_equivalent_0_sub_stateless_alu_arith_4_2_salu_config_0_0 = 0
int blue_decrease_equivalent_7_canonicalizer_equivalent_0_sub_stateless_alu_arith_4_2_salu_config_0_1 = 0
int blue_decrease_equivalent_7_canonicalizer_equivalent_0_sub_stateless_alu_arith_4_2_salu_config_1_0 = 0
int blue_decrease_equivalent_7_canonicalizer_equivalent_0_sub_stateless_alu_arith_4_2_salu_config_1_1 = 1
int blue_decrease_equivalent_7_canonicalizer_equivalent_0_sub_stateless_alu_arith_4_2_salu_config_2_0 = 0
int blue_decrease_equivalent_7_canonicalizer_equivalent_0_sub_stateless_alu_arith_4_2_salu_config_2_1 = 0
int blue_decrease_equivalent_7_canonicalizer_equivalent_0_sub_stateless_alu_arith_4_2_salu_config_3_0 = 1
int blue_decrease_equivalent_7_canonicalizer_equivalent_0_sub_stateless_alu_arith_4_2_salu_config_3_1 = 0
int blue_decrease_equivalent_7_canonicalizer_equivalent_0_sub_stateless_alu_arith_4_2_stateful_alu_0_0_Mux3_0_global = 0
int blue_decrease_equivalent_7_canonicalizer_equivalent_0_sub_stateless_alu_arith_4_2_stateful_alu_0_0_Mux3_1_global = 0
int blue_decrease_equivalent_7_canonicalizer_equivalent_0_sub_stateless_alu_arith_4_2_stateful_alu_0_0_Mux3_2_global = 0
int blue_decrease_equivalent_7_canonicalizer_equivalent_0_sub_stateless_alu_arith_4_2_stateful_alu_0_0_Mux3_3_global = 3
int blue_decrease_equivalent_7_canonicalizer_equivalent_0_sub_stateless_alu_arith_4_2_stateful_alu_0_0_Mux3_4_global = 2
int blue_decrease_equivalent_7_canonicalizer_equivalent_0_sub_stateless_alu_arith_4_2_stateful_alu_0_0_Opt_0_global = 0
int blue_decrease_equivalent_7_canonicalizer_equivalent_0_sub_stateless_alu_arith_4_2_stateful_alu_0_0_Opt_1_global = 0
int blue_decrease_equivalent_7_canonicalizer_equivalent_0_sub_stateless_alu_arith_4_2_stateful_alu_0_0_Opt_2_global = 0
int blue_decrease_equivalent_7_canonicalizer_equivalent_0_sub_stateless_alu_arith_4_2_stateful_alu_0_0_arith_op_0_global = 0
int blue_decrease_equivalent_7_canonicalizer_equivalent_0_sub_stateless_alu_arith_4_2_stateful_alu_0_0_arith_op_1_global = 1
int blue_decrease_equivalent_7_canonicalizer_equivalent_0_sub_stateless_alu_arith_4_2_stateful_alu_0_0_const_0_global = 14
int blue_decrease_equivalent_7_canonicalizer_equivalent_0_sub_stateless_alu_arith_4_2_stateful_alu_0_0_const_1_global = 2
int blue_decrease_equivalent_7_canonicalizer_equivalent_0_sub_stateless_alu_arith_4_2_stateful_alu_0_0_const_2_global = 0
int blue_decrease_equivalent_7_canonicalizer_equivalent_0_sub_stateless_alu_arith_4_2_stateful_alu_0_0_const_3_global = 14
int blue_decrease_equivalent_7_canonicalizer_equivalent_0_sub_stateless_alu_arith_4_2_stateful_alu_0_0_const_4_global = 5
int blue_decrease_equivalent_7_canonicalizer_equivalent_0_sub_stateless_alu_arith_4_2_stateful_alu_0_0_output_mux_global = 1
int blue_decrease_equivalent_7_canonicalizer_equivalent_0_sub_stateless_alu_arith_4_2_stateful_alu_0_0_rel_op_0_global = 2
int blue_decrease_equivalent_7_canonicalizer_equivalent_0_sub_stateless_alu_arith_4_2_stateful_alu_0_1_Mux3_0_global = 3
int blue_decrease_equivalent_7_canonicalizer_equivalent_0_sub_stateless_alu_arith_4_2_stateful_alu_0_1_Mux3_1_global = 1
int blue_decrease_equivalent_7_canonicalizer_equivalent_0_sub_stateless_alu_arith_4_2_stateful_alu_0_1_Mux3_2_global = 2
int blue_decrease_equivalent_7_canonicalizer_equivalent_0_sub_stateless_alu_arith_4_2_stateful_alu_0_1_Mux3_3_global = 2
int blue_decrease_equivalent_7_canonicalizer_equivalent_0_sub_stateless_alu_arith_4_2_stateful_alu_0_1_Mux3_4_global = 2
int blue_decrease_equivalent_7_canonicalizer_equivalent_0_sub_stateless_alu_arith_4_2_stateful_alu_0_1_Opt_0_global = 0
int blue_decrease_equivalent_7_canonicalizer_equivalent_0_sub_stateless_alu_arith_4_2_stateful_alu_0_1_Opt_1_global = 0
int blue_decrease_equivalent_7_canonicalizer_equivalent_0_sub_stateless_alu_arith_4_2_stateful_alu_0_1_Opt_2_global = 0
int blue_decrease_equivalent_7_canonicalizer_equivalent_0_sub_stateless_alu_arith_4_2_stateful_alu_0_1_arith_op_0_global = 0
int blue_decrease_equivalent_7_canonicalizer_equivalent_0_sub_stateless_alu_arith_4_2_stateful_alu_0_1_arith_op_1_global = 1
int blue_decrease_equivalent_7_canonicalizer_equivalent_0_sub_stateless_alu_arith_4_2_stateful_alu_0_1_const_0_global = 0
int blue_decrease_equivalent_7_canonicalizer_equivalent_0_sub_stateless_alu_arith_4_2_stateful_alu_0_1_const_1_global = 1
int blue_decrease_equivalent_7_canonicalizer_equivalent_0_sub_stateless_alu_arith_4_2_stateful_alu_0_1_const_2_global = 15
int blue_decrease_equivalent_7_canonicalizer_equivalent_0_sub_stateless_alu_arith_4_2_stateful_alu_0_1_const_3_global = 9
int blue_decrease_equivalent_7_canonicalizer_equivalent_0_sub_stateless_alu_arith_4_2_stateful_alu_0_1_const_4_global = 14
int blue_decrease_equivalent_7_canonicalizer_equivalent_0_sub_stateless_alu_arith_4_2_stateful_alu_0_1_output_mux_global = 0
int blue_decrease_equivalent_7_canonicalizer_equivalent_0_sub_stateless_alu_arith_4_2_stateful_alu_0_1_rel_op_0_global = 2
int blue_decrease_equivalent_7_canonicalizer_equivalent_0_sub_stateless_alu_arith_4_2_stateful_alu_1_0_Mux3_0_global = 2
int blue_decrease_equivalent_7_canonicalizer_equivalent_0_sub_stateless_alu_arith_4_2_stateful_alu_1_0_Mux3_1_global = 1
int blue_decrease_equivalent_7_canonicalizer_equivalent_0_sub_stateless_alu_arith_4_2_stateful_alu_1_0_Mux3_2_global = 0
int blue_decrease_equivalent_7_canonicalizer_equivalent_0_sub_stateless_alu_arith_4_2_stateful_alu_1_0_Mux3_3_global = 0
int blue_decrease_equivalent_7_canonicalizer_equivalent_0_sub_stateless_alu_arith_4_2_stateful_alu_1_0_Mux3_4_global = 0
int blue_decrease_equivalent_7_canonicalizer_equivalent_0_sub_stateless_alu_arith_4_2_stateful_alu_1_0_Opt_0_global = 0
int blue_decrease_equivalent_7_canonicalizer_equivalent_0_sub_stateless_alu_arith_4_2_stateful_alu_1_0_Opt_1_global = 0
int blue_decrease_equivalent_7_canonicalizer_equivalent_0_sub_stateless_alu_arith_4_2_stateful_alu_1_0_Opt_2_global = 0
int blue_decrease_equivalent_7_canonicalizer_equivalent_0_sub_stateless_alu_arith_4_2_stateful_alu_1_0_arith_op_0_global = 0
int blue_decrease_equivalent_7_canonicalizer_equivalent_0_sub_stateless_alu_arith_4_2_stateful_alu_1_0_arith_op_1_global = 1
int blue_decrease_equivalent_7_canonicalizer_equivalent_0_sub_stateless_alu_arith_4_2_stateful_alu_1_0_const_0_global = 4
int blue_decrease_equivalent_7_canonicalizer_equivalent_0_sub_stateless_alu_arith_4_2_stateful_alu_1_0_const_1_global = 0
int blue_decrease_equivalent_7_canonicalizer_equivalent_0_sub_stateless_alu_arith_4_2_stateful_alu_1_0_const_2_global = 1
int blue_decrease_equivalent_7_canonicalizer_equivalent_0_sub_stateless_alu_arith_4_2_stateful_alu_1_0_const_3_global = 4
int blue_decrease_equivalent_7_canonicalizer_equivalent_0_sub_stateless_alu_arith_4_2_stateful_alu_1_0_const_4_global = 0
int blue_decrease_equivalent_7_canonicalizer_equivalent_0_sub_stateless_alu_arith_4_2_stateful_alu_1_0_output_mux_global = 0
int blue_decrease_equivalent_7_canonicalizer_equivalent_0_sub_stateless_alu_arith_4_2_stateful_alu_1_0_rel_op_0_global = 3
int blue_decrease_equivalent_7_canonicalizer_equivalent_0_sub_stateless_alu_arith_4_2_stateful_alu_1_1_Mux3_0_global = 1
int blue_decrease_equivalent_7_canonicalizer_equivalent_0_sub_stateless_alu_arith_4_2_stateful_alu_1_1_Mux3_1_global = 2
int blue_decrease_equivalent_7_canonicalizer_equivalent_0_sub_stateless_alu_arith_4_2_stateful_alu_1_1_Mux3_2_global = 1
int blue_decrease_equivalent_7_canonicalizer_equivalent_0_sub_stateless_alu_arith_4_2_stateful_alu_1_1_Mux3_3_global = 2
int blue_decrease_equivalent_7_canonicalizer_equivalent_0_sub_stateless_alu_arith_4_2_stateful_alu_1_1_Mux3_4_global = 3
int blue_decrease_equivalent_7_canonicalizer_equivalent_0_sub_stateless_alu_arith_4_2_stateful_alu_1_1_Opt_0_global = 0
int blue_decrease_equivalent_7_canonicalizer_equivalent_0_sub_stateless_alu_arith_4_2_stateful_alu_1_1_Opt_1_global = 1
int blue_decrease_equivalent_7_canonicalizer_equivalent_0_sub_stateless_alu_arith_4_2_stateful_alu_1_1_Opt_2_global = 0
int blue_decrease_equivalent_7_canonicalizer_equivalent_0_sub_stateless_alu_arith_4_2_stateful_alu_1_1_arith_op_0_global = 0
int blue_decrease_equivalent_7_canonicalizer_equivalent_0_sub_stateless_alu_arith_4_2_stateful_alu_1_1_arith_op_1_global = 0
int blue_decrease_equivalent_7_canonicalizer_equivalent_0_sub_stateless_alu_arith_4_2_stateful_alu_1_1_const_0_global = 2
int blue_decrease_equivalent_7_canonicalizer_equivalent_0_sub_stateless_alu_arith_4_2_stateful_alu_1_1_const_1_global = 2
int blue_decrease_equivalent_7_canonicalizer_equivalent_0_sub_stateless_alu_arith_4_2_stateful_alu_1_1_const_2_global = 4
int blue_decrease_equivalent_7_canonicalizer_equivalent_0_sub_stateless_alu_arith_4_2_stateful_alu_1_1_const_3_global = 15
int blue_decrease_equivalent_7_canonicalizer_equivalent_0_sub_stateless_alu_arith_4_2_stateful_alu_1_1_const_4_global = 15
int blue_decrease_equivalent_7_canonicalizer_equivalent_0_sub_stateless_alu_arith_4_2_stateful_alu_1_1_output_mux_global = 1
int blue_decrease_equivalent_7_canonicalizer_equivalent_0_sub_stateless_alu_arith_4_2_stateful_alu_1_1_rel_op_0_global = 1
int blue_decrease_equivalent_7_canonicalizer_equivalent_0_sub_stateless_alu_arith_4_2_stateful_alu_2_0_Mux3_0_global = 3
int blue_decrease_equivalent_7_canonicalizer_equivalent_0_sub_stateless_alu_arith_4_2_stateful_alu_2_0_Mux3_1_global = 0
int blue_decrease_equivalent_7_canonicalizer_equivalent_0_sub_stateless_alu_arith_4_2_stateful_alu_2_0_Mux3_2_global = 3
int blue_decrease_equivalent_7_canonicalizer_equivalent_0_sub_stateless_alu_arith_4_2_stateful_alu_2_0_Mux3_3_global = 0
int blue_decrease_equivalent_7_canonicalizer_equivalent_0_sub_stateless_alu_arith_4_2_stateful_alu_2_0_Mux3_4_global = 2
int blue_decrease_equivalent_7_canonicalizer_equivalent_0_sub_stateless_alu_arith_4_2_stateful_alu_2_0_Opt_0_global = 0
int blue_decrease_equivalent_7_canonicalizer_equivalent_0_sub_stateless_alu_arith_4_2_stateful_alu_2_0_Opt_1_global = 0
int blue_decrease_equivalent_7_canonicalizer_equivalent_0_sub_stateless_alu_arith_4_2_stateful_alu_2_0_Opt_2_global = 0
int blue_decrease_equivalent_7_canonicalizer_equivalent_0_sub_stateless_alu_arith_4_2_stateful_alu_2_0_arith_op_0_global = 0
int blue_decrease_equivalent_7_canonicalizer_equivalent_0_sub_stateless_alu_arith_4_2_stateful_alu_2_0_arith_op_1_global = 1
int blue_decrease_equivalent_7_canonicalizer_equivalent_0_sub_stateless_alu_arith_4_2_stateful_alu_2_0_const_0_global = 15
int blue_decrease_equivalent_7_canonicalizer_equivalent_0_sub_stateless_alu_arith_4_2_stateful_alu_2_0_const_1_global = 4
int blue_decrease_equivalent_7_canonicalizer_equivalent_0_sub_stateless_alu_arith_4_2_stateful_alu_2_0_const_2_global = 2
int blue_decrease_equivalent_7_canonicalizer_equivalent_0_sub_stateless_alu_arith_4_2_stateful_alu_2_0_const_3_global = 2
int blue_decrease_equivalent_7_canonicalizer_equivalent_0_sub_stateless_alu_arith_4_2_stateful_alu_2_0_const_4_global = 2
int blue_decrease_equivalent_7_canonicalizer_equivalent_0_sub_stateless_alu_arith_4_2_stateful_alu_2_0_output_mux_global = 0
int blue_decrease_equivalent_7_canonicalizer_equivalent_0_sub_stateless_alu_arith_4_2_stateful_alu_2_0_rel_op_0_global = 2
int blue_decrease_equivalent_7_canonicalizer_equivalent_0_sub_stateless_alu_arith_4_2_stateful_alu_2_1_Mux3_0_global = 3
int blue_decrease_equivalent_7_canonicalizer_equivalent_0_sub_stateless_alu_arith_4_2_stateful_alu_2_1_Mux3_1_global = 0
int blue_decrease_equivalent_7_canonicalizer_equivalent_0_sub_stateless_alu_arith_4_2_stateful_alu_2_1_Mux3_2_global = 1
int blue_decrease_equivalent_7_canonicalizer_equivalent_0_sub_stateless_alu_arith_4_2_stateful_alu_2_1_Mux3_3_global = 3
int blue_decrease_equivalent_7_canonicalizer_equivalent_0_sub_stateless_alu_arith_4_2_stateful_alu_2_1_Mux3_4_global = 0
int blue_decrease_equivalent_7_canonicalizer_equivalent_0_sub_stateless_alu_arith_4_2_stateful_alu_2_1_Opt_0_global = 0
int blue_decrease_equivalent_7_canonicalizer_equivalent_0_sub_stateless_alu_arith_4_2_stateful_alu_2_1_Opt_1_global = 0
int blue_decrease_equivalent_7_canonicalizer_equivalent_0_sub_stateless_alu_arith_4_2_stateful_alu_2_1_Opt_2_global = 0
int blue_decrease_equivalent_7_canonicalizer_equivalent_0_sub_stateless_alu_arith_4_2_stateful_alu_2_1_arith_op_0_global = 0
int blue_decrease_equivalent_7_canonicalizer_equivalent_0_sub_stateless_alu_arith_4_2_stateful_alu_2_1_arith_op_1_global = 1
int blue_decrease_equivalent_7_canonicalizer_equivalent_0_sub_stateless_alu_arith_4_2_stateful_alu_2_1_const_0_global = 15
int blue_decrease_equivalent_7_canonicalizer_equivalent_0_sub_stateless_alu_arith_4_2_stateful_alu_2_1_const_1_global = 2
int blue_decrease_equivalent_7_canonicalizer_equivalent_0_sub_stateless_alu_arith_4_2_stateful_alu_2_1_const_2_global = 0
int blue_decrease_equivalent_7_canonicalizer_equivalent_0_sub_stateless_alu_arith_4_2_stateful_alu_2_1_const_3_global = 15
int blue_decrease_equivalent_7_canonicalizer_equivalent_0_sub_stateless_alu_arith_4_2_stateful_alu_2_1_const_4_global = 0
int blue_decrease_equivalent_7_canonicalizer_equivalent_0_sub_stateless_alu_arith_4_2_stateful_alu_2_1_output_mux_global = 0
int blue_decrease_equivalent_7_canonicalizer_equivalent_0_sub_stateless_alu_arith_4_2_stateful_alu_2_1_rel_op_0_global = 0
int blue_decrease_equivalent_7_canonicalizer_equivalent_0_sub_stateless_alu_arith_4_2_stateful_alu_3_0_Mux3_0_global = 1
int blue_decrease_equivalent_7_canonicalizer_equivalent_0_sub_stateless_alu_arith_4_2_stateful_alu_3_0_Mux3_1_global = 2
int blue_decrease_equivalent_7_canonicalizer_equivalent_0_sub_stateless_alu_arith_4_2_stateful_alu_3_0_Mux3_2_global = 2
int blue_decrease_equivalent_7_canonicalizer_equivalent_0_sub_stateless_alu_arith_4_2_stateful_alu_3_0_Mux3_3_global = 2
int blue_decrease_equivalent_7_canonicalizer_equivalent_0_sub_stateless_alu_arith_4_2_stateful_alu_3_0_Mux3_4_global = 3
int blue_decrease_equivalent_7_canonicalizer_equivalent_0_sub_stateless_alu_arith_4_2_stateful_alu_3_0_Opt_0_global = 1
int blue_decrease_equivalent_7_canonicalizer_equivalent_0_sub_stateless_alu_arith_4_2_stateful_alu_3_0_Opt_1_global = 0
int blue_decrease_equivalent_7_canonicalizer_equivalent_0_sub_stateless_alu_arith_4_2_stateful_alu_3_0_Opt_2_global = 0
int blue_decrease_equivalent_7_canonicalizer_equivalent_0_sub_stateless_alu_arith_4_2_stateful_alu_3_0_arith_op_0_global = 0
int blue_decrease_equivalent_7_canonicalizer_equivalent_0_sub_stateless_alu_arith_4_2_stateful_alu_3_0_arith_op_1_global = 1
int blue_decrease_equivalent_7_canonicalizer_equivalent_0_sub_stateless_alu_arith_4_2_stateful_alu_3_0_const_0_global = 15
int blue_decrease_equivalent_7_canonicalizer_equivalent_0_sub_stateless_alu_arith_4_2_stateful_alu_3_0_const_1_global = 15
int blue_decrease_equivalent_7_canonicalizer_equivalent_0_sub_stateless_alu_arith_4_2_stateful_alu_3_0_const_2_global = 15
int blue_decrease_equivalent_7_canonicalizer_equivalent_0_sub_stateless_alu_arith_4_2_stateful_alu_3_0_const_3_global = 15
int blue_decrease_equivalent_7_canonicalizer_equivalent_0_sub_stateless_alu_arith_4_2_stateful_alu_3_0_const_4_global = 0
int blue_decrease_equivalent_7_canonicalizer_equivalent_0_sub_stateless_alu_arith_4_2_stateful_alu_3_0_output_mux_global = 0
int blue_decrease_equivalent_7_canonicalizer_equivalent_0_sub_stateless_alu_arith_4_2_stateful_alu_3_0_rel_op_0_global = 2
int blue_decrease_equivalent_7_canonicalizer_equivalent_0_sub_stateless_alu_arith_4_2_stateful_alu_3_1_Mux3_0_global = 2
int blue_decrease_equivalent_7_canonicalizer_equivalent_0_sub_stateless_alu_arith_4_2_stateful_alu_3_1_Mux3_1_global = 3
int blue_decrease_equivalent_7_canonicalizer_equivalent_0_sub_stateless_alu_arith_4_2_stateful_alu_3_1_Mux3_2_global = 3
int blue_decrease_equivalent_7_canonicalizer_equivalent_0_sub_stateless_alu_arith_4_2_stateful_alu_3_1_Mux3_3_global = 3
int blue_decrease_equivalent_7_canonicalizer_equivalent_0_sub_stateless_alu_arith_4_2_stateful_alu_3_1_Mux3_4_global = 0
int blue_decrease_equivalent_7_canonicalizer_equivalent_0_sub_stateless_alu_arith_4_2_stateful_alu_3_1_Opt_0_global = 0
int blue_decrease_equivalent_7_canonicalizer_equivalent_0_sub_stateless_alu_arith_4_2_stateful_alu_3_1_Opt_1_global = 0
int blue_decrease_equivalent_7_canonicalizer_equivalent_0_sub_stateless_alu_arith_4_2_stateful_alu_3_1_Opt_2_global = 0
int blue_decrease_equivalent_7_canonicalizer_equivalent_0_sub_stateless_alu_arith_4_2_stateful_alu_3_1_arith_op_0_global = 0
int blue_decrease_equivalent_7_canonicalizer_equivalent_0_sub_stateless_alu_arith_4_2_stateful_alu_3_1_arith_op_1_global = 1
int blue_decrease_equivalent_7_canonicalizer_equivalent_0_sub_stateless_alu_arith_4_2_stateful_alu_3_1_const_0_global = 2
int blue_decrease_equivalent_7_canonicalizer_equivalent_0_sub_stateless_alu_arith_4_2_stateful_alu_3_1_const_1_global = 4
int blue_decrease_equivalent_7_canonicalizer_equivalent_0_sub_stateless_alu_arith_4_2_stateful_alu_3_1_const_2_global = 12
int blue_decrease_equivalent_7_canonicalizer_equivalent_0_sub_stateless_alu_arith_4_2_stateful_alu_3_1_const_3_global = 0
int blue_decrease_equivalent_7_canonicalizer_equivalent_0_sub_stateless_alu_arith_4_2_stateful_alu_3_1_const_4_global = 2
int blue_decrease_equivalent_7_canonicalizer_equivalent_0_sub_stateless_alu_arith_4_2_stateful_alu_3_1_output_mux_global = 0
int blue_decrease_equivalent_7_canonicalizer_equivalent_0_sub_stateless_alu_arith_4_2_stateful_alu_3_1_rel_op_0_global = 3
int blue_decrease_equivalent_7_canonicalizer_equivalent_0_sub_stateless_alu_arith_4_2_stateful_operand_mux_0_0_0_ctrl = 0
int blue_decrease_equivalent_7_canonicalizer_equivalent_0_sub_stateless_alu_arith_4_2_stateful_operand_mux_0_0_1_ctrl = 0
int blue_decrease_equivalent_7_canonicalizer_equivalent_0_sub_stateless_alu_arith_4_2_stateful_operand_mux_0_1_0_ctrl = 0
int blue_decrease_equivalent_7_canonicalizer_equivalent_0_sub_stateless_alu_arith_4_2_stateful_operand_mux_0_1_1_ctrl = 0
int blue_decrease_equivalent_7_canonicalizer_equivalent_0_sub_stateless_alu_arith_4_2_stateful_operand_mux_1_0_0_ctrl = 0
int blue_decrease_equivalent_7_canonicalizer_equivalent_0_sub_stateless_alu_arith_4_2_stateful_operand_mux_1_0_1_ctrl = 1
int blue_decrease_equivalent_7_canonicalizer_equivalent_0_sub_stateless_alu_arith_4_2_stateful_operand_mux_1_1_0_ctrl = 0
int blue_decrease_equivalent_7_canonicalizer_equivalent_0_sub_stateless_alu_arith_4_2_stateful_operand_mux_1_1_1_ctrl = 0
int blue_decrease_equivalent_7_canonicalizer_equivalent_0_sub_stateless_alu_arith_4_2_stateful_operand_mux_2_0_0_ctrl = 0
int blue_decrease_equivalent_7_canonicalizer_equivalent_0_sub_stateless_alu_arith_4_2_stateful_operand_mux_2_0_1_ctrl = 0
int blue_decrease_equivalent_7_canonicalizer_equivalent_0_sub_stateless_alu_arith_4_2_stateful_operand_mux_2_1_0_ctrl = 0
int blue_decrease_equivalent_7_canonicalizer_equivalent_0_sub_stateless_alu_arith_4_2_stateful_operand_mux_2_1_1_ctrl = 0
int blue_decrease_equivalent_7_canonicalizer_equivalent_0_sub_stateless_alu_arith_4_2_stateful_operand_mux_3_0_0_ctrl = 0
int blue_decrease_equivalent_7_canonicalizer_equivalent_0_sub_stateless_alu_arith_4_2_stateful_operand_mux_3_0_1_ctrl = 0
int blue_decrease_equivalent_7_canonicalizer_equivalent_0_sub_stateless_alu_arith_4_2_stateful_operand_mux_3_1_0_ctrl = 1
int blue_decrease_equivalent_7_canonicalizer_equivalent_0_sub_stateless_alu_arith_4_2_stateful_operand_mux_3_1_1_ctrl = 0
int blue_decrease_equivalent_7_canonicalizer_equivalent_0_sub_stateless_alu_arith_4_2_stateless_alu_0_0_immediate = 2
int blue_decrease_equivalent_7_canonicalizer_equivalent_0_sub_stateless_alu_arith_4_2_stateless_alu_0_0_mux1_ctrl = 0
int blue_decrease_equivalent_7_canonicalizer_equivalent_0_sub_stateless_alu_arith_4_2_stateless_alu_0_0_mux2_ctrl = 1
int blue_decrease_equivalent_7_canonicalizer_equivalent_0_sub_stateless_alu_arith_4_2_stateless_alu_0_0_opcode = 4
int blue_decrease_equivalent_7_canonicalizer_equivalent_0_sub_stateless_alu_arith_4_2_stateless_alu_0_1_immediate = 1
int blue_decrease_equivalent_7_canonicalizer_equivalent_0_sub_stateless_alu_arith_4_2_stateless_alu_0_1_mux1_ctrl = 1
int blue_decrease_equivalent_7_canonicalizer_equivalent_0_sub_stateless_alu_arith_4_2_stateless_alu_0_1_mux2_ctrl = 0
int blue_decrease_equivalent_7_canonicalizer_equivalent_0_sub_stateless_alu_arith_4_2_stateless_alu_0_1_opcode = 7
int blue_decrease_equivalent_7_canonicalizer_equivalent_0_sub_stateless_alu_arith_4_2_stateless_alu_1_0_immediate = 16
int blue_decrease_equivalent_7_canonicalizer_equivalent_0_sub_stateless_alu_arith_4_2_stateless_alu_1_0_mux1_ctrl = 0
int blue_decrease_equivalent_7_canonicalizer_equivalent_0_sub_stateless_alu_arith_4_2_stateless_alu_1_0_mux2_ctrl = 1
int blue_decrease_equivalent_7_canonicalizer_equivalent_0_sub_stateless_alu_arith_4_2_stateless_alu_1_0_opcode = 4
int blue_decrease_equivalent_7_canonicalizer_equivalent_0_sub_stateless_alu_arith_4_2_stateless_alu_1_1_immediate = 4
int blue_decrease_equivalent_7_canonicalizer_equivalent_0_sub_stateless_alu_arith_4_2_stateless_alu_1_1_mux1_ctrl = 0
int blue_decrease_equivalent_7_canonicalizer_equivalent_0_sub_stateless_alu_arith_4_2_stateless_alu_1_1_mux2_ctrl = 1
int blue_decrease_equivalent_7_canonicalizer_equivalent_0_sub_stateless_alu_arith_4_2_stateless_alu_1_1_opcode = 6
int blue_decrease_equivalent_7_canonicalizer_equivalent_0_sub_stateless_alu_arith_4_2_stateless_alu_2_0_immediate = 15
int blue_decrease_equivalent_7_canonicalizer_equivalent_0_sub_stateless_alu_arith_4_2_stateless_alu_2_0_mux1_ctrl = 0
int blue_decrease_equivalent_7_canonicalizer_equivalent_0_sub_stateless_alu_arith_4_2_stateless_alu_2_0_mux2_ctrl = 1
int blue_decrease_equivalent_7_canonicalizer_equivalent_0_sub_stateless_alu_arith_4_2_stateless_alu_2_0_opcode = 3
int blue_decrease_equivalent_7_canonicalizer_equivalent_0_sub_stateless_alu_arith_4_2_stateless_alu_2_1_immediate = 4
int blue_decrease_equivalent_7_canonicalizer_equivalent_0_sub_stateless_alu_arith_4_2_stateless_alu_2_1_mux1_ctrl = 0
int blue_decrease_equivalent_7_canonicalizer_equivalent_0_sub_stateless_alu_arith_4_2_stateless_alu_2_1_mux2_ctrl = 0
int blue_decrease_equivalent_7_canonicalizer_equivalent_0_sub_stateless_alu_arith_4_2_stateless_alu_2_1_opcode = 5
int blue_decrease_equivalent_7_canonicalizer_equivalent_0_sub_stateless_alu_arith_4_2_stateless_alu_3_0_immediate = 9
int blue_decrease_equivalent_7_canonicalizer_equivalent_0_sub_stateless_alu_arith_4_2_stateless_alu_3_0_mux1_ctrl = 1
int blue_decrease_equivalent_7_canonicalizer_equivalent_0_sub_stateless_alu_arith_4_2_stateless_alu_3_0_mux2_ctrl = 0
int blue_decrease_equivalent_7_canonicalizer_equivalent_0_sub_stateless_alu_arith_4_2_stateless_alu_3_0_opcode = 5
int blue_decrease_equivalent_7_canonicalizer_equivalent_0_sub_stateless_alu_arith_4_2_stateless_alu_3_1_immediate = 4
int blue_decrease_equivalent_7_canonicalizer_equivalent_0_sub_stateless_alu_arith_4_2_stateless_alu_3_1_mux1_ctrl = 0
int blue_decrease_equivalent_7_canonicalizer_equivalent_0_sub_stateless_alu_arith_4_2_stateless_alu_3_1_mux2_ctrl = 0
int blue_decrease_equivalent_7_canonicalizer_equivalent_0_sub_stateless_alu_arith_4_2_stateless_alu_3_1_opcode = 3
Output left in blue_decrease_equivalent_7_canonicalizer_equivalent_0_sub_stateless_alu_arith_4_2.success